%%% static parameters %%%
timespan = 1;
Clients_N = [4000];
Demand_W = [15];
Lt0 = [4];
Lt1 = [4];
SS_ = [0.85];
DS_D = [20];
K = [200];
MA = [500];
HC = [0.05];
%%% dynamic parameters %%%
lost_ratio_sales_ret_th = 7.560982455766752e-06;
lost_ratio_sales_ret_w = 40;
lost_ratio_sales_dis_th = 0.0002583806592588703;
lost_ratio_sales_dis_w = 100;
lost_ratio_sales_fac_th = 0.00016542162893084766;
lost_ratio_sales_fac_w = 35;
stock_customer_MA_mean_relative_th = 0.8727122654210349;
stock_customer_MA_mean_relative_w = 15;
stock_distributor_MA_mean_relative_th = 0.4308138865534096;
stock_distributor_MA_mean_relative_w = 69;
stock_retailer_MA_mean_relative_th = 0.9053342780337009;
stock_retailer_MA_mean_relative_w = 56;
stock_factory_MA_mean_relative_th = 0.7762516630790223;
stock_factory_MA_mean_relative_w = 69;
